sat
(:cnf-encoding-aux-vars   25
 :eliminated-applications 4
 :eliminated-vars         111
 :max-memory              18.89
 :memory                  18.32
 :nlsat-conflicts         62
 :nlsat-decisions         64
 :nlsat-learned-added     46
 :nlsat-propagations      455
 :nlsat-stages            89
 :num-allocs              37494
 :rlimit-count            62678
 :time                    0.02
 :total-time              0.03)
